solution status: time limit reached
objective value:                                  152
shell_i_$_215                                       1 	(obj:0)
shell_i_$_220                                       1 	(obj:0)
shell_i_$_57__2                                     1 	(obj:0)
shell_j_$_57__2                                     1 	(obj:0)
shell_i_$_185__2                                    1 	(obj:0)
shell_j_$_267__2                                    1 	(obj:0)
shell_i_$_203__2                                    1 	(obj:0)
shell_i_$_204__2                                    1 	(obj:0)
shell_j_$_152                                       1 	(obj:0)
shell_j_$_255__2                                    1 	(obj:0)
shell_i_$_150__2                                    1 	(obj:0)
shell_j_$_56__2                                     1 	(obj:0)
shell_i_$_154__2                                    1 	(obj:0)
shell_j_$_236__2                                    1 	(obj:0)
shell_j_$_232__2                                    1 	(obj:0)
shell_j_$_217__2                                    1 	(obj:0)
shell_j_$_202__2                                    1 	(obj:0)
shell_i_$_179                                       1 	(obj:0)
shell_j_$_70                                        1 	(obj:0)
shell_j_$_243__2                                    1 	(obj:0)
shell_i_$_167__2                                    1 	(obj:0)
shell_j_$_184__2                                    1 	(obj:0)
shell_i_$_52__2                                     1 	(obj:0)
shell_j_$_68__2                                     1 	(obj:0)
shell_j_$_62__2                                     1 	(obj:0)
shell_j_$_43__2                                     1 	(obj:0)
shell_j_$_244__2                                    1 	(obj:0)
shell_i_$_45__2                                     1 	(obj:0)
shell_j_$_63__2                                     1 	(obj:0)
shell_j_$_224__2                                    1 	(obj:0)
shell_j_$_261                                       1 	(obj:0)
shell_j_$_142                                       1 	(obj:0)
shell_j_$_213__2                                    1 	(obj:0)
shell_j_$_60__2                                     1 	(obj:0)
shell_j_$_30__2                                     1 	(obj:0)
shell_j_$_31__2                                     1 	(obj:0)
shell_j_$_265__2                                    1 	(obj:0)
shell_j_$_258__2                                    1 	(obj:0)
shell_j_$_206__2                                    1 	(obj:0)
shell_j_$_208__2                                    1 	(obj:0)
shell_j_$_42__2                                     1 	(obj:0)
shell_j_$_247__2                                    1 	(obj:0)
shell_j_$_136                                       1 	(obj:0)
shell_j_$_137                                       1 	(obj:0)
shell_i_$_197__2                                    1 	(obj:0)
shell_j_$_191__2                                    1 	(obj:0)
shell_j_$_162__2                                    1 	(obj:0)
shell_j_$_58__2                                     1 	(obj:0)
shell_i_$_170__2                                    1 	(obj:0)
shell_i_$_165__2                                    1 	(obj:0)
shell_j_$_73                                        1 	(obj:0)
shell_j_$_273__2                                    1 	(obj:0)
shell_i_$_181__2                                    1 	(obj:0)
shell_i_$_32__2                                     1 	(obj:0)
shell_j_$_32__2                                     1 	(obj:0)
shell_i_$_35__2                                     1 	(obj:0)
shell_i_$_71__2                                     1 	(obj:0)
shell_j_$_275                                       1 	(obj:0)
shell_j_$_67__2                                     1 	(obj:0)
shell_i_$_186__2                                    1 	(obj:0)
shell_j_$_36__2                                     1 	(obj:0)
shell_i_$_53__2                                     1 	(obj:0)
shell_i_$_199__2                                    1 	(obj:0)
shell_j_$_176__2                                    1 	(obj:0)
shell_j_$_173__2                                    1 	(obj:0)
shell_j_$_268__2                                    1 	(obj:0)
shell_j_$_211__2                                    1 	(obj:0)
shell_j_$_245__2                                    1 	(obj:0)
shell_j_$_172__2                                    1 	(obj:0)
shell_j_$_250__2                                    1 	(obj:0)
shell_i_$_51                                        1 	(obj:0)
shell_j_$_226__2                                    1 	(obj:0)
shell_j_$_161__2                                    1 	(obj:0)
shell_j_$_158__2                                    1 	(obj:0)
shell_j_$_193                                       1 	(obj:0)
shell_i_$_163__2                                    1 	(obj:0)
shell_i_$_260__2                                    1 	(obj:0)
shell_j_$_49__2                                     1 	(obj:0)
shell_j_$_168__2                                    1 	(obj:0)
shell_j_$_33__2                                     1 	(obj:0)
shell_j_$_48                                        1 	(obj:0)
shell_i_$_256                                       1 	(obj:0)
shell_j_$_44                                        1 	(obj:0)
shell_j_$_156__2                                    1 	(obj:0)
shell_j_$_55__2                                     1 	(obj:0)
shell_j_$_238__2                                    1 	(obj:0)
shell_j_$_214__2                                    1 	(obj:0)
shell_j_$_252__2                                    1 	(obj:0)
shell_j_$_222__2                                    1 	(obj:0)
shell_j_$_209__2                                    1 	(obj:0)
shell_j_$_178__2                                    1 	(obj:0)
shell_i_$_40__2                                     1 	(obj:0)
shell_j_$_174                                       1 	(obj:0)
shell_j_$_225__2                                    1 	(obj:0)
shell_j_$_240__2                                    1 	(obj:0)
shell_j_$_34__2                                     1 	(obj:0)
shell_j_$_234                                       1 	(obj:0)
shell_j_$_195__2                                    1 	(obj:0)
shell_i_$_183__2                                    1 	(obj:0)
shell_j_$_66                                        1 	(obj:0)
shell_j_$_246__2                                    1 	(obj:0)
shell_i_$_143                                       1 	(obj:0)
shell_j_$_46__2                                     1 	(obj:0)
shell_j_$_59__2                                     1 	(obj:0)
shell_j_$_39__2                                     1 	(obj:0)
shell_j_$_227__2                                    1 	(obj:0)
shell_j_$_61__2                                     1 	(obj:0)
shell_i_$_219__2                                    1 	(obj:0)
shell_j_$_41__2                                     1 	(obj:0)
shell_j_$_54__2                                     1 	(obj:0)
shell_j_$_164__2                                    1 	(obj:0)
shell_i_$_266__2                                    1 	(obj:0)
shell_j_$_38__2                                     1 	(obj:0)
shell_j_$_249__2                                    1 	(obj:0)
shell_j_$_37__2                                     1 	(obj:0)
shell_j_$_254__2                                    1 	(obj:0)
shell_i_$_64__2                                     1 	(obj:0)
shell_j_$_65__2                                     1 	(obj:0)
shell_j_$_263__2                                    1 	(obj:0)
shell_j_$_205__2                                    1 	(obj:0)
$_170__2_z                                         -3 	(obj:0)
$_152_z                                           -15 	(obj:0)
$_167__2_x                                         -4 	(obj:0)
$_165__2_x                                         -4 	(obj:0)
$_165__2_y                                         -1 	(obj:0)
$_165__2_z                                        -11 	(obj:0)
$_167__2_z                                         -8 	(obj:0)
$_73_x                                             -1 	(obj:0)
$_73_y                                             -4 	(obj:0)
$_73_z                                             -2 	(obj:0)
$_220_x                                            -4 	(obj:0)
$_185__2_x                                          4 	(obj:0)
$_273__2_x                                         -2 	(obj:0)
$_273__2_y                                         -4 	(obj:0)
$_273__2_z                                          6 	(obj:0)
$_184__2_x                                         -1 	(obj:0)
$_184__2_y                                         -4 	(obj:0)
$_181__2_x                                         -4 	(obj:0)
$_181__2_y                                          2 	(obj:0)
$_181__2_z                                        -11 	(obj:0)
$_184__2_z                                        -11 	(obj:0)
$_255__2_x                                          1 	(obj:0)
$_32__2_x                                           4 	(obj:0)
$_32__2_y                                           4 	(obj:0)
$_32__2_z                                         -17 	(obj:0)
$_255__2_y                                         -4 	(obj:0)
$_52__2_x                                           4 	(obj:0)
$_35__2_x                                          -4 	(obj:0)
$_35__2_y                                          -4 	(obj:0)
$_35__2_z                                         -16 	(obj:0)
$_52__2_y                                          -4 	(obj:0)
$_52__2_z                                          22 	(obj:0)
$_71__2_x                                          -4 	(obj:0)
$_71__2_y                                           4 	(obj:0)
$_71__2_z                                          -2 	(obj:0)
$_255__2_z                                         -6 	(obj:0)
$_185__2_y                                         -4 	(obj:0)
$_275_x                                            -2 	(obj:0)
$_275_y                                            -4 	(obj:0)
$_275_z                                            -8 	(obj:0)
$_68__2_x                                           4 	(obj:0)
$_68__2_y                                          -4 	(obj:0)
$_67__2_x                                          -1 	(obj:0)
$_67__2_y                                          -4 	(obj:0)
$_67__2_z                                          -3 	(obj:0)
$_185__2_z                                         -7 	(obj:0)
$_186__2_x                                          4 	(obj:0)
$_186__2_y                                         -4 	(obj:0)
$_186__2_z                                        -12 	(obj:0)
$_150__2_x                                          4 	(obj:0)
$_36__2_x                                          -1 	(obj:0)
$_36__2_y                                          -4 	(obj:0)
$_36__2_z                                          -9 	(obj:0)
$_62__2_y                                           4 	(obj:0)
$_62__2_z                                          -4 	(obj:0)
$_53__2_x                                           4 	(obj:0)
$_53__2_y                                           4 	(obj:0)
$_53__2_z                                           2 	(obj:0)
$_150__2_y                                         -1 	(obj:0)
$_150__2_z                                        -20 	(obj:0)
$_199__2_x                                          4 	(obj:0)
$_199__2_z                                        -12 	(obj:0)
$_43__2_x                                           4 	(obj:0)
$_43__2_y                                          -4 	(obj:0)
$_176__2_y                                          4 	(obj:0)
$_176__2_z                                        -14 	(obj:0)
$_43__2_z                                         -17 	(obj:0)
$_220_y                                            -4 	(obj:0)
$_173__2_x                                          4 	(obj:0)
$_173__2_y                                          4 	(obj:0)
$_173__2_z                                         -6 	(obj:0)
$_220_z                                           -13 	(obj:0)
$_244__2_x                                          4 	(obj:0)
$_268__2_x                                          4 	(obj:0)
$_268__2_y                                         -4 	(obj:0)
$_268__2_z                                         -1 	(obj:0)
$_244__2_y                                          4 	(obj:0)
$_244__2_z                                          6 	(obj:0)
$_211__2_y                                          4 	(obj:0)
$_211__2_z                                         -5 	(obj:0)
$_56__2_x                                          -4 	(obj:0)
$_56__2_y                                          -4 	(obj:0)
$_245__2_x                                         -3 	(obj:0)
$_245__2_y                                         -4 	(obj:0)
$_45__2_x                                          -4 	(obj:0)
$_45__2_y                                           2 	(obj:0)
$_172__2_x                                          4 	(obj:0)
$_172__2_y                                         -4 	(obj:0)
$_172__2_z                                        -21 	(obj:0)
$_45__2_z                                          -5 	(obj:0)
$_250__2_x                                         -4 	(obj:0)
$_250__2_y                                         -4 	(obj:0)
$_250__2_z                                         -6 	(obj:0)
$_267__2_x                                         -4 	(obj:0)
$_63__2_x                                           4 	(obj:0)
$_51_x                                             -4 	(obj:0)
$_51_z                                            -11 	(obj:0)
$_63__2_y                                          -4 	(obj:0)
$_63__2_z                                          -8 	(obj:0)
$_226__2_x                                         -4 	(obj:0)
$_226__2_y                                         -4 	(obj:0)
$_226__2_z                                         -4 	(obj:0)
$_267__2_y                                         -4 	(obj:0)
$_154__2_x                                          4 	(obj:0)
$_161__2_x                                          4 	(obj:0)
$_161__2_y                                          4 	(obj:0)
$_161__2_z                                         -5 	(obj:0)
$_224__2_x                                          4 	(obj:0)
$_224__2_y                                         -4 	(obj:0)
$_158__2_x                                          4 	(obj:0)
$_158__2_y                                          4 	(obj:0)
$_158__2_z                                         -7 	(obj:0)
$_224__2_z                                         -4 	(obj:0)
$_154__2_y                                          4 	(obj:0)
$_193_x                                            -2 	(obj:0)
$_193_y                                            -4 	(obj:0)
$_193_z                                           -14 	(obj:0)
$_154__2_z                                        -20 	(obj:0)
$_261_x                                            -1 	(obj:0)
$_163__2_x                                          4 	(obj:0)
$_163__2_z                                         -1 	(obj:0)
$_261_y                                            -4 	(obj:0)
$_261_z                                           -12 	(obj:0)
$_260__2_x                                         -4 	(obj:0)
$_260__2_y                                          4 	(obj:0)
$_260__2_z                                         -4 	(obj:0)
$_267__2_z                                         -3 	(obj:0)
$_215_z                                           -14 	(obj:0)
$_49__2_x                                           3 	(obj:0)
$_49__2_y                                           4 	(obj:0)
$_49__2_z                                         -10 	(obj:0)
$_142_x                                            -4 	(obj:0)
$_142_y                                            -4 	(obj:0)
$_168__2_x                                         -1 	(obj:0)
$_168__2_y                                         -4 	(obj:0)
$_168__2_z                                         -7 	(obj:0)
$_142_z                                            -8 	(obj:0)
$_236__2_x                                          4 	(obj:0)
$_33__2_x                                           1 	(obj:0)
$_33__2_y                                          -4 	(obj:0)
$_236__2_y                                         -4 	(obj:0)
$_48_x                                             -4 	(obj:0)
$_48_y                                              4 	(obj:0)
$_48_z                                            -19 	(obj:0)
$_213__2_y                                         -4 	(obj:0)
$_213__2_z                                         -3 	(obj:0)
$_256_x                                            -4 	(obj:0)
$_256_y                                             1 	(obj:0)
$_256_z                                           -12 	(obj:0)
$_236__2_z                                          6 	(obj:0)
$_215_x                                            -4 	(obj:0)
$_44_x                                             -4 	(obj:0)
$_44_y                                             -4 	(obj:0)
$_44_z                                            -17 	(obj:0)
$_60__2_x                                           4 	(obj:0)
$_60__2_y                                          -4 	(obj:0)
$_156__2_x                                         -1 	(obj:0)
$_156__2_y                                          4 	(obj:0)
$_156__2_z                                         -1 	(obj:0)
$_60__2_z                                         -10 	(obj:0)
$_203__2_x                                         -4 	(obj:0)
$_55__2_x                                          -4 	(obj:0)
$_55__2_y                                          -4 	(obj:0)
$_55__2_z                                           1 	(obj:0)
$_232__2_x                                          4 	(obj:0)
$_30__2_x                                          -4 	(obj:0)
$_238__2_y                                          4 	(obj:0)
$_238__2_z                                          2 	(obj:0)
$_30__2_y                                          -4 	(obj:0)
$_30__2_z                                          -2 	(obj:0)
$_214__2_y                                         -4 	(obj:0)
$_214__2_z                                        -11 	(obj:0)
$_232__2_y                                         -4 	(obj:0)
$_232__2_z                                         -3 	(obj:0)
$_252__2_x                                          4 	(obj:0)
$_252__2_y                                          4 	(obj:0)
$_252__2_z                                         -1 	(obj:0)
$_31__2_x                                           3 	(obj:0)
$_31__2_y                                           4 	(obj:0)
$_222__2_x                                         -1 	(obj:0)
$_222__2_y                                         -4 	(obj:0)
$_222__2_z                                         -8 	(obj:0)
$_31__2_z                                         -17 	(obj:0)
$_203__2_y                                          1 	(obj:0)
$_209__2_x                                         -4 	(obj:0)
$_209__2_y                                         -4 	(obj:0)
$_209__2_z                                         -7 	(obj:0)
$_203__2_z                                         -3 	(obj:0)
$_265__2_x                                         -4 	(obj:0)
$_178__2_x                                          2 	(obj:0)
$_178__2_y                                          4 	(obj:0)
$_178__2_z                                         -9 	(obj:0)
$_265__2_y                                         -4 	(obj:0)
$_265__2_z                                          6 	(obj:0)
$_40__2_x                                           4 	(obj:0)
$_40__2_z                                         -21 	(obj:0)
$_217__2_x                                         -4 	(obj:0)
$_217__2_y                                          4 	(obj:0)
$_174_x                                            -4 	(obj:0)
$_174_y                                             4 	(obj:0)
$_174_z                                           -17 	(obj:0)
$_258__2_x                                         -4 	(obj:0)
$_258__2_y                                          4 	(obj:0)
$_225__2_x                                         -3 	(obj:0)
$_225__2_y                                         -4 	(obj:0)
$_225__2_z                                        -14 	(obj:0)
$_258__2_z                                        -10 	(obj:0)
$_217__2_z                                        -12 	(obj:0)
$_240__2_x                                         -1 	(obj:0)
$_240__2_y                                         -4 	(obj:0)
$_240__2_z                                         -1 	(obj:0)
$_57__2_x                                           4 	(obj:0)
$_206__2_x                                          3 	(obj:0)
$_34__2_x                                          -4 	(obj:0)
$_34__2_y                                           4 	(obj:0)
$_34__2_z                                         -15 	(obj:0)
$_206__2_y                                         -4 	(obj:0)
$_206__2_z                                         -6 	(obj:0)
$_234_x                                            -3 	(obj:0)
$_234_y                                            -4 	(obj:0)
$_234_z                                           -12 	(obj:0)
$_57__2_y                                           4 	(obj:0)
$_202__2_x                                         -4 	(obj:0)
$_195__2_x                                          4 	(obj:0)
$_195__2_y                                          4 	(obj:0)
$_195__2_z                                         -4 	(obj:0)
$_208__2_x                                         -4 	(obj:0)
$_208__2_y                                          4 	(obj:0)
$_183__2_x                                         -4 	(obj:0)
$_183__2_z                                         -6 	(obj:0)
$_208__2_z                                         -8 	(obj:0)
$_202__2_y                                         -4 	(obj:0)
$_66_x                                             -4 	(obj:0)
$_66_y                                             -4 	(obj:0)
$_66_z                                            -12 	(obj:0)
$_202__2_z                                        -14 	(obj:0)
$_42__2_x                                          -4 	(obj:0)
$_246__2_x                                          4 	(obj:0)
$_246__2_y                                          4 	(obj:0)
$_246__2_z                                        -14 	(obj:0)
$_42__2_y                                          -4 	(obj:0)
$_42__2_z                                         -24 	(obj:0)
$_143_x                                            -4 	(obj:0)
$_143_z                                           -14 	(obj:0)
$_204__2_x                                         -4 	(obj:0)
$_46__2_x                                          -2 	(obj:0)
$_46__2_y                                          -4 	(obj:0)
$_46__2_z                                         -17 	(obj:0)
$_247__2_x                                          4 	(obj:0)
$_247__2_y                                          4 	(obj:0)
$_59__2_y                                           4 	(obj:0)
$_59__2_z                                         -11 	(obj:0)
$_247__2_z                                         -8 	(obj:0)
$_179_x                                            -4 	(obj:0)
$_39__2_x                                          -4 	(obj:0)
$_39__2_y                                          -4 	(obj:0)
$_39__2_z                                          -5 	(obj:0)
$_179_y                                            -2 	(obj:0)
$_136_x                                            -1 	(obj:0)
$_227__2_y                                         -4 	(obj:0)
$_227__2_z                                         -5 	(obj:0)
$_136_y                                             4 	(obj:0)
$_136_z                                           -12 	(obj:0)
$_61__2_x                                          -4 	(obj:0)
$_61__2_y                                          -4 	(obj:0)
$_61__2_z                                           4 	(obj:0)
$_179_z                                           -17 	(obj:0)
$_204__2_z                                        -13 	(obj:0)
$_219__2_x                                         -4 	(obj:0)
$_219__2_y                                         -2 	(obj:0)
$_219__2_z                                         -8 	(obj:0)
$_137_x                                            -4 	(obj:0)
$_137_y                                             4 	(obj:0)
$_41__2_x                                          -4 	(obj:0)
$_41__2_y                                           4 	(obj:0)
$_41__2_z                                         -20 	(obj:0)
$_137_z                                           -18 	(obj:0)
$_57__2_z                                         -12 	(obj:0)
$_54__2_x                                           4 	(obj:0)
$_54__2_y                                          -4 	(obj:0)
$_54__2_z                                           2 	(obj:0)
$_70_x                                             -4 	(obj:0)
$_197__2_x                                         -4 	(obj:0)
$_164__2_x                                         -4 	(obj:0)
$_164__2_y                                         -4 	(obj:0)
$_164__2_z                                         -9 	(obj:0)
$_197__2_y                                         -3 	(obj:0)
$_197__2_z                                          1 	(obj:0)
$_266__2_x                                         -4 	(obj:0)
$_266__2_z                                        -12 	(obj:0)
$_70_y                                              4 	(obj:0)
$_70_z                                             -6 	(obj:0)
$_38__2_y                                          -4 	(obj:0)
$_38__2_z                                          -4 	(obj:0)
$_191__2_y                                         -4 	(obj:0)
$_249__2_x                                          1 	(obj:0)
$_249__2_y                                          4 	(obj:0)
$_249__2_z                                        -12 	(obj:0)
$_191__2_z                                         -7 	(obj:0)
$_215_y                                             4 	(obj:0)
$_37__2_x                                           4 	(obj:0)
$_37__2_y                                          -4 	(obj:0)
$_37__2_z                                          -5 	(obj:0)
$_152_x                                            -4 	(obj:0)
$_162__2_x                                          4 	(obj:0)
$_254__2_x                                          4 	(obj:0)
$_254__2_y                                          4 	(obj:0)
$_254__2_z                                          1 	(obj:0)
$_162__2_y                                          4 	(obj:0)
$_162__2_z                                        -21 	(obj:0)
$_64__2_x                                          -4 	(obj:0)
$_64__2_y                                          -4 	(obj:0)
$_64__2_z                                          22 	(obj:0)
$_243__2_y                                          4 	(obj:0)
$_65__2_x                                           4 	(obj:0)
$_65__2_y                                          -4 	(obj:0)
$_65__2_z                                          11 	(obj:0)
$_58__2_x                                           2 	(obj:0)
$_58__2_y                                          -4 	(obj:0)
$_263__2_y                                         -4 	(obj:0)
$_263__2_z                                         -6 	(obj:0)
$_58__2_z                                          -9 	(obj:0)
$_205__2_x                                          4 	(obj:0)
$_205__2_y                                          4 	(obj:0)
$_205__2_z                                        -24 	(obj:0)
$_152_y                                            -4 	(obj:0)
$_170__2_x                                         -4 	(obj:0)
x599                                                3 	(obj:1)
x611                                                3 	(obj:1)
x614                                                1 	(obj:1)
x617                                                3 	(obj:1)
x622                                                2 	(obj:1)
x623                                                2 	(obj:1)
x624                                                3 	(obj:1)
x652                                                2 	(obj:1)
x656                                                3 	(obj:1)
x662                                                1 	(obj:1)
x663                                                3 	(obj:1)
x665                                                2 	(obj:1)
x677                                                3 	(obj:1)
x683                                                2 	(obj:1)
x690                                                3 	(obj:1)
x693                                                3 	(obj:1)
x698                                                2 	(obj:1)
x701                                                2 	(obj:1)
x704                                                3 	(obj:1)
x707                                                2 	(obj:1)
x716                                                3 	(obj:1)
x719                                                2 	(obj:1)
x722                                                3 	(obj:1)
x737                                                1 	(obj:1)
x740                                                1 	(obj:1)
x746                                                3 	(obj:1)
x749                                                2 	(obj:1)
x751                                                3 	(obj:1)
x752                                                3 	(obj:1)
x760                                                2 	(obj:1)
x766                                                3 	(obj:1)
x767                                                1 	(obj:1)
x770                                                3 	(obj:1)
x774                                                2 	(obj:1)
x776                                                2 	(obj:1)
x779                                                3 	(obj:1)
x783                                                3 	(obj:1)
x785                                                2 	(obj:1)
x797                                                1 	(obj:1)
x812                                                3 	(obj:1)
x815                                                3 	(obj:1)
x818                                                1 	(obj:1)
x824                                                2 	(obj:1)
x828                                                2 	(obj:1)
x830                                                2 	(obj:1)
x836                                                3 	(obj:1)
x842                                                2 	(obj:1)
x843                                                3 	(obj:1)
x845                                                1 	(obj:1)
x850                                                3 	(obj:1)
x852                                                1 	(obj:1)
x853                                                3 	(obj:1)
x869                                                3 	(obj:1)
x878                                                1 	(obj:1)
x881                                                1 	(obj:1)
x890                                                1 	(obj:1)
x896                                                3 	(obj:1)
x899                                                2 	(obj:1)
x903                                                1 	(obj:1)
x911                                                3 	(obj:1)
x920                                                3 	(obj:1)
x923                                                3 	(obj:1)
x929                                                2 	(obj:1)
x932                                                3 	(obj:1)
x953                                                3 	(obj:1)
x954                                                3 	(obj:1)
